NAME : instances/clustered-mixed-tsp/instance-22.tsp
COMMENT : No Comment
TYPE : TSP
DIMENSION: 51
EDGE_WEIGHT_TYPE : EUC_2D
NODE_COORD_SECTION
1 1531 832 
2 615 1428 
3 71 963 
4 1101 631 
5 533 14 
6 1476 996 
7 1642 179 
8 1030 789 
9 1946 2 
10 239 161 
11 1641 1547 
12 1958 580 
13 1788 62 
14 573 1128 
15 1292 1165 
16 850 453 
17 308 1247 
18 1312 301 
19 1812 1054 
20 1397 232 
21 389 1914 
22 1707 280 
23 1413 956 
24 1160 122 
25 1718 404 
26 568 530 
27 189 648 
28 1548 224 
29 153 735 
30 392 1419 
31 1847 445 
32 358 160 
33 1967 220 
34 496 1440 
35 363 449 
36 775 133 
37 840 890 
38 948 1587 
39 1422 916 
40 601 1244 
41 174 54 
42 923 97 
43 1570 262 
44 1722 974 
45 857 1279 
46 395 131 
47 23 1460 
48 1019 1553 
49 775 1919 
50 1652 1391 
51 1257 1177 
EOF
